# Solution for model count
# Objective value = 9
z#1 1
z#2 0
z#3 0
z#4 1
z#5 0
z#6 1
z#7 1
z#8 0
z#9 1
z#10 0
z#11 0
z#12 0
z#13 0
z#14 1
z#15 0
z#16 0
z#17 0
z#18 0
z#19 1
z#20 1
z#21 0
z#22 1
z#23 0
z#24 0
x#24 0
x#23 0
x#22 375
x#21 0
x#20 1046
x#19 699
x#18 0
x#17 0
x#16 0
x#15 0
x#14 33
x#13 0
x#12 0
x#11 0
x#10 0
x#9 3858
x#8 0
x#7 31
x#6 867
x#5 0
x#4 2393
x#3 0
x#2 0
x#1 698
